webassembly/ejemplos_dzn/folder12_json_13.dzn
TERM = { '.', 's(5)', 's(2)', 's(4)', 'in_1', 'local_0', 'local_1', 'in_2', 's(6)', 's(1)', 's(0)', 's(7)', 's(3)', 'in_0'};
null = '.';
s = 12;
n = 10;
ndeps = 2;
max_registers_sz = 5;
NR = 2;
registers = [|'local_0', 's(4)', |'local_1', 's(6)'|];
dependencies = [|'i32.store_5', 'call[function_index(0)]_8', |'call[function_index(0)]_8', 'call[function_index(1)]_10'|];
GET_ENUM = { GET1, GET2, GET3, GET4, GET5, GET6, GET7};
SET_ENUM = { SET1, SET2, SET3, SET4, SET5, SET6, SET7};
TEE_ENUM = { TEE1, TEE2, TEE3, TEE4, TEE5, TEE6, TEE7};
N = 6;
OP = { 'i32.sub_0', 'i32.add_0', 'i32.const_0', 'call[function_index(0)]_8', 'call[function_index(1)]_10', 'i32.store_5' };
in_ops = [2, 2, 0, 1, 3, 2 ];
out_ops = [1, 1, 1, 3, 2, 0 ];
in1 = ['in_0', 's(0)', '.', 's(7)', 's(4)', 'local_0' ];
in2 = ['in_1', 'in_2', '.', '.', 's(3)', 'local_0' ];
in3 = ['.', '.', '.', '.', 's(2)', '.' ];
out1 = ['s(0)', 's(1)', 's(7)', 's(4)', 's(6)', '.' ];
out2 = ['.', '.', '.', 's(3)', 's(5)', '.' ];
out3 = ['.', '.', '.', 's(2)', '.', '.' ];
comm = [false, true, false, false, false, false ];
gas = [1, 1, 1, 1, 1, 1 ];
sz = [1, 1, 1, 1, 1, 1 ];
stor = [false, false, false, true, true, true ];
lb = [ 1, 1, 1, 1, 1, 1 ];
ub = [ 12, 12, 12, 12, 12, 12 ];
startstack = [ 'in_0', 'in_1', 'in_2', null, null, null, null, null, null, null ];
endstack = [ 's(6)', 's(5)', 's(1)', null, null, null, null, null, null, null ];
